<?xml version = "1.0" standalone="yes"?>
<!-- This file has been generated by DOcplex version 2.23.222  -->
<CPLEXSolution version="1.0">
 <header
   problemName="CVRP"
   objectiveValue="20499.8"
  />
 <variables>
  <variable name="x_0_1" index="0" value="1.00000"/>
  <variable name="x_0_3" index="2" value="1.00000"/>
  <variable name="x_0_4" index="3" value="1.00000"/>
  <variable name="x_0_6" index="5" value="1.00000"/>
  <variable name="x_0_7" index="6" value="1.00000"/>
  <variable name="x_0_9" index="8" value="1.00000"/>
  <variable name="x_0_11" index="10" value="1.00000"/>
  <variable name="x_0_12" index="11" value="1.00000"/>
  <variable name="x_0_13" index="12" value="1.00000"/>
  <variable name="x_0_14" index="13" value="1.00000"/>
  <variable name="x_0_20" index="19" value="1.00000"/>
  <variable name="x_0_22" index="21" value="1.00000"/>
  <variable name="x_0_25" index="24" value="1.00000"/>
  <variable name="x_0_27" index="26" value="1.00000"/>
  <variable name="x_0_28" index="27" value="1.00000"/>
  <variable name="x_1_5" index="32" value="1.00000"/>
  <variable name="x_2_21" index="76" value="1.00000"/>
  <variable name="x_3_0" index="84" value="1.00000"/>
  <variable name="x_4_17" index="128" value="1.00000"/>
  <variable name="x_5_0" index="140" value="1.00000"/>
  <variable name="x_6_19" index="186" value="1.00000"/>
  <variable name="x_7_16" index="211" value="1.00000"/>
  <variable name="x_8_24" index="247" value="1.00000"/>
  <variable name="x_9_26" index="277" value="1.00000"/>
  <variable name="x_10_23" index="302" value="1.00000"/>
  <variable name="x_11_18" index="325" value="1.00000"/>
  <variable name="x_12_0" index="336" value="1.00000"/>
  <variable name="x_13_10" index="374" value="1.00000"/>
  <variable name="x_14_0" index="392" value="1.00000"/>
  <variable name="x_15_0" index="420" value="1.00000"/>
  <variable name="x_16_0" index="448" value="1.00000"/>
  <variable name="x_17_0" index="476" value="1.00000"/>
  <variable name="x_18_0" index="504" value="1.00000"/>
  <variable name="x_19_0" index="532" value="1.00000"/>
  <variable name="x_20_2" index="562" value="1.00000"/>
  <variable name="x_21_0" index="588" value="1.00000"/>
  <variable name="x_22_0" index="616" value="1.00000"/>
  <variable name="x_23_0" index="644" value="1.00000"/>
  <variable name="x_24_0" index="672" value="1.00000"/>
  <variable name="x_25_0" index="700" value="1.00000"/>
  <variable name="x_26_0" index="728" value="1.00000"/>
  <variable name="x_27_15" index="771" value="1.00000"/>
  <variable name="x_28_8" index="792" value="1.00000"/>
  <variable name="u_1" index="812" value="16.00000"/>
  <variable name="u_2" index="813" value="19.00000"/>
  <variable name="u_3" index="814" value="27.00000"/>
  <variable name="u_4" index="815" value="10.00000"/>
  <variable name="u_5" index="816" value="26.00000"/>
  <variable name="u_6" index="817" value="22.00000"/>
  <variable name="u_7" index="818" value="8.00000"/>
  <variable name="u_8" index="819" value="12.00000"/>
  <variable name="u_9" index="820" value="5.00000"/>
  <variable name="u_10" index="821" value="24.00000"/>
  <variable name="u_11" index="822" value="10.00000"/>
  <variable name="u_12" index="823" value="27.00000"/>
  <variable name="u_13" index="824" value="6.00000"/>
  <variable name="u_14" index="825" value="26.00000"/>
  <variable name="u_15" index="826" value="27.00000"/>
  <variable name="u_16" index="827" value="26.00000"/>
  <variable name="u_17" index="828" value="25.00000"/>
  <variable name="u_18" index="829" value="27.00000"/>
  <variable name="u_19" index="830" value="27.00000"/>
  <variable name="u_20" index="831" value="6.00000"/>
  <variable name="u_21" index="832" value="27.00000"/>
  <variable name="u_22" index="833" value="27.00000"/>
  <variable name="u_23" index="834" value="27.00000"/>
  <variable name="u_24" index="835" value="25.00000"/>
  <variable name="u_25" index="836" value="27.00000"/>
  <variable name="u_26" index="837" value="23.00000"/>
  <variable name="u_27" index="838" value="23.00000"/>
  <variable name="u_28" index="839" value="10.00000"/>
 </variables>
</CPLEXSolution>
